data/lp_files/q3/56_4.lp
\ Model foo
\ LP format - for model browsing. Use MPS format to capture full model detail.
Minimize
  z
Subject To
 allocateEach[1]: x[1,1] + x[2,1] + x[3,1] = 1
 allocateEach[2]: x[1,2] + x[2,2] + x[3,2] = 1
 allocateEach[3]: x[1,3] + x[2,3] + x[3,3] = 1
 allocateEach[4]: x[1,4] + x[2,4] + x[3,4] = 1
 allocateEach[5]: x[1,5] + x[2,5] + x[3,5] = 1
 allocateEach[6]: x[1,6] + x[2,6] + x[3,6] = 1
 allocateEach[7]: x[1,7] + x[2,7] + x[3,7] = 1
 allocateEach[8]: x[1,8] + x[2,8] + x[3,8] = 1
 allocateEach[9]: x[1,9] + x[2,9] + x[3,9] = 1
 allocateEach[10]: x[1,10] + x[2,10] + x[3,10] = 1
 allocateEach[11]: x[1,11] + x[2,11] + x[3,11] = 1
 allocateEach[12]: x[1,12] + x[2,12] + x[3,12] = 1
 allocateEach[13]: x[1,13] + x[2,13] + x[3,13] = 1
 allocateEach[14]: x[1,14] + x[2,14] + x[3,14] = 1
 allocateEach[15]: x[1,15] + x[2,15] + x[3,15] = 1
 allocateEach[16]: x[1,16] + x[2,16] + x[3,16] = 1
 allocateAllCash: cashProportion[1] + cashProportion[2] + cashProportion[3]
   = 1
 findWorstP[1,2]: z + 0.0273283777874945 cashProportion[1]
   - 0.0273283777874945 cashProportion[2] + 0.0784871010056843 x[1,1]
   + 0.1072037603847836 x[1,2] + 0.0244752951464801 x[1,3]
   + 0.0670966331438566 x[1,4] + 0.0146808045474421 x[1,5]
   + 0.0313401836466987 x[1,6] + 0.0534215128989943 x[1,7]
   + 0.0644403148229121 x[1,8] + 0.0431132487975514 x[1,9]
   + 0.0858876257105378 x[1,10] + 0.1015413205072147 x[1,11]
   + 0.0219610843900306 x[1,12] + 0.07491254919108 x[1,13]
   + 0.0378880629645824 x[1,14] + 0.0616965456930477 x[1,15]
   + 0.1045255793616091 x[1,16] - 0.0784871010056843 x[2,1]
   - 0.1072037603847836 x[2,2] - 0.0244752951464801 x[2,3]
   - 0.0670966331438566 x[2,4] - 0.0146808045474421 x[2,5]
   - 0.0313401836466987 x[2,6] - 0.0534215128989943 x[2,7]
   - 0.0644403148229121 x[2,8] - 0.0431132487975514 x[2,9]
   - 0.0858876257105378 x[2,10] - 0.1015413205072147 x[2,11]
   - 0.0219610843900306 x[2,12] - 0.07491254919108 x[2,13]
   - 0.0378880629645824 x[2,14] - 0.0616965456930477 x[2,15]
   - 0.1045255793616091 x[2,16] >= 0
 findWorstP[1,3]: z + 0.0273283777874945 cashProportion[1]
   - 0.0273283777874945 cashProportion[3] + 0.0784871010056843 x[1,1]
   + 0.1072037603847836 x[1,2] + 0.0244752951464801 x[1,3]
   + 0.0670966331438566 x[1,4] + 0.0146808045474421 x[1,5]
   + 0.0313401836466987 x[1,6] + 0.0534215128989943 x[1,7]
   + 0.0644403148229121 x[1,8] + 0.0431132487975514 x[1,9]
   + 0.0858876257105378 x[1,10] + 0.1015413205072147 x[1,11]
   + 0.0219610843900306 x[1,12] + 0.07491254919108 x[1,13]
   + 0.0378880629645824 x[1,14] + 0.0616965456930477 x[1,15]
   + 0.1045255793616091 x[1,16] - 0.0784871010056843 x[3,1]
   - 0.1072037603847836 x[3,2] - 0.0244752951464801 x[3,3]
   - 0.0670966331438566 x[3,4] - 0.0146808045474421 x[3,5]
   - 0.0313401836466987 x[3,6] - 0.0534215128989943 x[3,7]
   - 0.0644403148229121 x[3,8] - 0.0431132487975514 x[3,9]
   - 0.0858876257105378 x[3,10] - 0.1015413205072147 x[3,11]
   - 0.0219610843900306 x[3,12] - 0.07491254919108 x[3,13]
   - 0.0378880629645824 x[3,14] - 0.0616965456930477 x[3,15]
   - 0.1045255793616091 x[3,16] >= 0
 findWorstP[2,1]: z - 0.0249578212820334 cashProportion[1]
   + 0.0249578212820334 cashProportion[2] - 0.0660284119837475 x[1,1]
   - 0.0683644640557458 x[1,2] - 0.0743942736774851 x[1,3]
   - 0.0817019237488644 x[1,4] - 0.0226916511096247 x[1,5]
   - 0.0782876937974823 x[1,6] - 0.0863740278928611 x[1,7]
   - 0.0467410076969921 x[1,8] - 0.0838682626361449 x[1,9]
   - 0.0324950833092074 x[1,10] - 0.0432469127175074 x[1,11]
   - 0.0617157004662121 x[1,12] - 0.0336331599596682 x[1,13]
   - 0.0655791712006709 x[1,14] - 0.0938913236630095 x[1,15]
   - 0.0360291108027434 x[1,16] + 0.0660284119837475 x[2,1]
   + 0.0683644640557458 x[2,2] + 0.0743942736774851 x[2,3]
   + 0.0817019237488644 x[2,4] + 0.0226916511096247 x[2,5]
   + 0.0782876937974823 x[2,6] + 0.0863740278928611 x[2,7]
   + 0.0467410076969921 x[2,8] + 0.0838682626361449 x[2,9]
   + 0.0324950833092074 x[2,10] + 0.0432469127175074 x[2,11]
   + 0.0617157004662121 x[2,12] + 0.0336331599596682 x[2,13]
   + 0.0655791712006709 x[2,14] + 0.0938913236630095 x[2,15]
   + 0.0360291108027434 x[2,16] >= 0
 findWorstP[2,3]: z + 0.0249578212820334 cashProportion[2]
   - 0.0249578212820334 cashProportion[3] + 0.0660284119837475 x[2,1]
   + 0.0683644640557458 x[2,2] + 0.0743942736774851 x[2,3]
   + 0.0817019237488644 x[2,4] + 0.0226916511096247 x[2,5]
   + 0.0782876937974823 x[2,6] + 0.0863740278928611 x[2,7]
   + 0.0467410076969921 x[2,8] + 0.0838682626361449 x[2,9]
   + 0.0324950833092074 x[2,10] + 0.0432469127175074 x[2,11]
   + 0.0617157004662121 x[2,12] + 0.0336331599596682 x[2,13]
   + 0.0655791712006709 x[2,14] + 0.0938913236630095 x[2,15]
   + 0.0360291108027434 x[2,16] - 0.0660284119837475 x[3,1]
   - 0.0683644640557458 x[3,2] - 0.0743942736774851 x[3,3]
   - 0.0817019237488644 x[3,4] - 0.0226916511096247 x[3,5]
   - 0.0782876937974823 x[3,6] - 0.0863740278928611 x[3,7]
   - 0.0467410076969921 x[3,8] - 0.0838682626361449 x[3,9]
   - 0.0324950833092074 x[3,10] - 0.0432469127175074 x[3,11]
   - 0.0617157004662121 x[3,12] - 0.0336331599596682 x[3,13]
   - 0.0655791712006709 x[3,14] - 0.0938913236630095 x[3,15]
   - 0.0360291108027434 x[3,16] >= 0
 findWorstP[3,1]: z - 0.0297417228785229 cashProportion[1]
   + 0.0297417228785229 cashProportion[3] - 0.0721177296358423 x[1,1]
   - 0.0393899377803157 x[1,2] - 0.0294443056497377 x[1,3]
   - 0.0907122547794949 x[1,4] - 0.093186766122988 x[1,5]
   - 0.0119085858405606 x[1,6] - 0.0368440463019142 x[1,7]
   - 0.0716894488263916 x[1,8] - 0.1013835849483089 x[1,9]
   - 0.1031680883210203 x[1,10] - 0.0149065515067157 x[1,11]
   - 0.0709280607207014 x[1,12] - 0.0262440962680086 x[1,13]
   - 0.0642540181067609 x[1,14] - 0.105630702975362 x[1,15]
   - 0.0384500993373544 x[1,16] + 0.0721177296358423 x[3,1]
   + 0.0393899377803157 x[3,2] + 0.0294443056497377 x[3,3]
   + 0.0907122547794949 x[3,4] + 0.093186766122988 x[3,5]
   + 0.0119085858405606 x[3,6] + 0.0368440463019142 x[3,7]
   + 0.0716894488263916 x[3,8] + 0.1013835849483089 x[3,9]
   + 0.1031680883210203 x[3,10] + 0.0149065515067157 x[3,11]
   + 0.0709280607207014 x[3,12] + 0.0262440962680086 x[3,13]
   + 0.0642540181067609 x[3,14] + 0.105630702975362 x[3,15]
   + 0.0384500993373544 x[3,16] >= 0
 findWorstP[3,2]: z - 0.0297417228785229 cashProportion[2]
   + 0.0297417228785229 cashProportion[3] - 0.0721177296358423 x[2,1]
   - 0.0393899377803157 x[2,2] - 0.0294443056497377 x[2,3]
   - 0.0907122547794949 x[2,4] - 0.093186766122988 x[2,5]
   - 0.0119085858405606 x[2,6] - 0.0368440463019142 x[2,7]
   - 0.0716894488263916 x[2,8] - 0.1013835849483089 x[2,9]
   - 0.1031680883210203 x[2,10] - 0.0149065515067157 x[2,11]
   - 0.0709280607207014 x[2,12] - 0.0262440962680086 x[2,13]
   - 0.0642540181067609 x[2,14] - 0.105630702975362 x[2,15]
   - 0.0384500993373544 x[2,16] + 0.0721177296358423 x[3,1]
   + 0.0393899377803157 x[3,2] + 0.0294443056497377 x[3,3]
   + 0.0907122547794949 x[3,4] + 0.093186766122988 x[3,5]
   + 0.0119085858405606 x[3,6] + 0.0368440463019142 x[3,7]
   + 0.0716894488263916 x[3,8] + 0.1013835849483089 x[3,9]
   + 0.1031680883210203 x[3,10] + 0.0149065515067157 x[3,11]
   + 0.0709280607207014 x[3,12] + 0.0262440962680086 x[3,13]
   + 0.0642540181067609 x[3,14] + 0.105630702975362 x[3,15]
   + 0.0384500993373544 x[3,16] >= 0
Bounds
 z <= 1
 -infinity <= cashProportion[1] <= 1
 -infinity <= cashProportion[2] <= 1
 -infinity <= cashProportion[3] <= 1
Binaries
 x[1,1] x[1,2] x[1,3] x[1,4] x[1,5] x[1,6] x[1,7] x[1,8] x[1,9] x[1,10]
 x[1,11] x[1,12] x[1,13] x[1,14] x[1,15] x[1,16] x[2,1] x[2,2] x[2,3]
 x[2,4] x[2,5] x[2,6] x[2,7] x[2,8] x[2,9] x[2,10] x[2,11] x[2,12] x[2,13]
 x[2,14] x[2,15] x[2,16] x[3,1] x[3,2] x[3,3] x[3,4] x[3,5] x[3,6] x[3,7]
 x[3,8] x[3,9] x[3,10] x[3,11] x[3,12] x[3,13] x[3,14] x[3,15] x[3,16]
End
