data/mps_files/pEFS/56_4.mps
NAME foo
ROWS
 N  OBJ
 E  allocateEach[1]
 E  allocateEach[2]
 E  allocateEach[3]
 E  allocateEach[4]
 E  allocateEach[5]
 E  allocateEach[6]
 E  allocateEach[7]
 E  allocateEach[8]
 E  allocateEach[9]
 E  allocateEach[10]
 E  allocateEach[11]
 E  allocateEach[12]
 E  allocateEach[13]
 E  allocateEach[14]
 E  allocateEach[15]
 E  allocateEach[16]
 E  allocateAllCash
 G  findWorstP[1,2]
 G  findWorstP[1,3]
 G  findWorstP[2,1]
 G  findWorstP[2,3]
 G  findWorstP[3,1]
 G  findWorstP[3,2]
COLUMNS
    z         OBJ       1
    z         findWorstP[1,2]  1
    z         findWorstP[1,3]  1
    z         findWorstP[2,1]  1
    z         findWorstP[2,3]  1
    z         findWorstP[3,1]  1
    z         findWorstP[3,2]  1
    cashProportion[1]  allocateAllCash  1
    cashProportion[1]  findWorstP[1,2]  2.7328377787494536e-02
    cashProportion[1]  findWorstP[1,3]  2.7328377787494536e-02
    cashProportion[1]  findWorstP[2,1]  -2.4957821282033364e-02
    cashProportion[1]  findWorstP[3,1]  -2.9741722878522909e-02
    cashProportion[2]  allocateAllCash  1
    cashProportion[2]  findWorstP[1,2]  -2.7328377787494536e-02
    cashProportion[2]  findWorstP[2,1]  2.4957821282033364e-02
    cashProportion[2]  findWorstP[2,3]  2.4957821282033364e-02
    cashProportion[2]  findWorstP[3,2]  -2.9741722878522909e-02
    cashProportion[3]  allocateAllCash  1
    cashProportion[3]  findWorstP[1,3]  -2.7328377787494536e-02
    cashProportion[3]  findWorstP[2,3]  -2.4957821282033364e-02
    cashProportion[3]  findWorstP[3,1]  2.9741722878522909e-02
    cashProportion[3]  findWorstP[3,2]  2.9741722878522909e-02
    MARKER    'MARKER'                 'INTORG'
    x[1,1]    allocateEach[1]  1
    x[1,1]    findWorstP[1,2]  0.0784871010056843
    x[1,1]    findWorstP[1,3]  0.0784871010056843
    x[1,1]    findWorstP[2,1]  -6.6028411983747468e-02
    x[1,1]    findWorstP[3,1]  -7.2117729635842343e-02
    x[1,2]    allocateEach[2]  1
    x[1,2]    findWorstP[1,2]  1.0720376038478356e-01
    x[1,2]    findWorstP[1,3]  1.0720376038478356e-01
    x[1,2]    findWorstP[2,1]  -6.8364464055745783e-02
    x[1,2]    findWorstP[3,1]  -3.9389937780315742e-02
    x[1,3]    allocateEach[3]  1
    x[1,3]    findWorstP[1,2]  2.4475295146480103e-02
    x[1,3]    findWorstP[1,3]  2.4475295146480103e-02
    x[1,3]    findWorstP[2,1]  -7.4394273677485051e-02
    x[1,3]    findWorstP[3,1]  -2.9444305649737681e-02
    x[1,4]    allocateEach[4]  1
    x[1,4]    findWorstP[1,2]  6.7096633143856582e-02
    x[1,4]    findWorstP[1,3]  6.7096633143856582e-02
    x[1,4]    findWorstP[2,1]  -8.1701923748864425e-02
    x[1,4]    findWorstP[3,1]  -9.0712254779494864e-02
    x[1,5]    allocateEach[5]  1
    x[1,5]    findWorstP[1,2]  1.4680804547442064e-02
    x[1,5]    findWorstP[1,3]  1.4680804547442064e-02
    x[1,5]    findWorstP[2,1]  -2.2691651109624733e-02
    x[1,5]    findWorstP[3,1]  -9.3186766122987971e-02
    x[1,6]    allocateEach[6]  1
    x[1,6]    findWorstP[1,2]  3.1340183646698737e-02
    x[1,6]    findWorstP[1,3]  3.1340183646698737e-02
    x[1,6]    findWorstP[2,1]  -7.8287693797482252e-02
    x[1,6]    findWorstP[3,1]  -1.1908585840560572e-02
    x[1,7]    allocateEach[7]  1
    x[1,7]    findWorstP[1,2]  5.3421512898994321e-02
    x[1,7]    findWorstP[1,3]  5.3421512898994321e-02
    x[1,7]    findWorstP[2,1]  -8.6374027892861055e-02
    x[1,7]    findWorstP[3,1]  -3.6844046301914180e-02
    x[1,8]    allocateEach[8]  1
    x[1,8]    findWorstP[1,2]  6.4440314822912112e-02
    x[1,8]    findWorstP[1,3]  6.4440314822912112e-02
    x[1,8]    findWorstP[2,1]  -4.6741007696992083e-02
    x[1,8]    findWorstP[3,1]  -7.1689448826391625e-02
    x[1,9]    allocateEach[9]  1
    x[1,9]    findWorstP[1,2]  4.3113248797551379e-02
    x[1,9]    findWorstP[1,3]  4.3113248797551379e-02
    x[1,9]    findWorstP[2,1]  -8.3868262636144914e-02
    x[1,9]    findWorstP[3,1]  -1.0138358494830889e-01
    x[1,10]   allocateEach[10]  1
    x[1,10]   findWorstP[1,2]  8.5887625710537818e-02
    x[1,10]   findWorstP[1,3]  8.5887625710537818e-02
    x[1,10]   findWorstP[2,1]  -3.2495083309207438e-02
    x[1,10]   findWorstP[3,1]  -1.0316808832102026e-01
    x[1,11]   allocateEach[11]  1
    x[1,11]   findWorstP[1,2]  1.0154132050721469e-01
    x[1,11]   findWorstP[1,3]  1.0154132050721469e-01
    x[1,11]   findWorstP[2,1]  -4.3246912717507413e-02
    x[1,11]   findWorstP[3,1]  -1.4906551506715682e-02
    x[1,12]   allocateEach[12]  1
    x[1,12]   findWorstP[1,2]  2.1961084390030607e-02
    x[1,12]   findWorstP[1,3]  2.1961084390030607e-02
    x[1,12]   findWorstP[2,1]  -6.1715700466212095e-02
    x[1,12]   findWorstP[3,1]  -7.0928060720701430e-02
    x[1,13]   allocateEach[13]  1
    x[1,13]   findWorstP[1,2]  7.4912549191080022e-02
    x[1,13]   findWorstP[1,3]  7.4912549191080022e-02
    x[1,13]   findWorstP[2,1]  -3.3633159959668160e-02
    x[1,13]   findWorstP[3,1]  -2.6244096268008613e-02
    x[1,14]   allocateEach[14]  1
    x[1,14]   findWorstP[1,2]  3.7888062964582428e-02
    x[1,14]   findWorstP[1,3]  3.7888062964582428e-02
    x[1,14]   findWorstP[2,1]  -6.5579171200670874e-02
    x[1,14]   findWorstP[3,1]  -0.0642540181067609
    x[1,15]   allocateEach[15]  1
    x[1,15]   findWorstP[1,2]  6.1696545693047666e-02
    x[1,15]   findWorstP[1,3]  6.1696545693047666e-02
    x[1,15]   findWorstP[2,1]  -9.3891323663009507e-02
    x[1,15]   findWorstP[3,1]  -1.0563070297536196e-01
    x[1,16]   allocateEach[16]  1
    x[1,16]   findWorstP[1,2]  1.0452557936160911e-01
    x[1,16]   findWorstP[1,3]  1.0452557936160911e-01
    x[1,16]   findWorstP[2,1]  -3.6029110802743361e-02
    x[1,16]   findWorstP[3,1]  -3.8450099337354417e-02
    x[2,1]    allocateEach[1]  1
    x[2,1]    findWorstP[1,2]  -0.0784871010056843
    x[2,1]    findWorstP[2,1]  6.6028411983747468e-02
    x[2,1]    findWorstP[2,3]  6.6028411983747468e-02
    x[2,1]    findWorstP[3,2]  -7.2117729635842343e-02
    x[2,2]    allocateEach[2]  1
    x[2,2]    findWorstP[1,2]  -1.0720376038478356e-01
    x[2,2]    findWorstP[2,1]  6.8364464055745783e-02
    x[2,2]    findWorstP[2,3]  6.8364464055745783e-02
    x[2,2]    findWorstP[3,2]  -3.9389937780315742e-02
    x[2,3]    allocateEach[3]  1
    x[2,3]    findWorstP[1,2]  -2.4475295146480103e-02
    x[2,3]    findWorstP[2,1]  7.4394273677485051e-02
    x[2,3]    findWorstP[2,3]  7.4394273677485051e-02
    x[2,3]    findWorstP[3,2]  -2.9444305649737681e-02
    x[2,4]    allocateEach[4]  1
    x[2,4]    findWorstP[1,2]  -6.7096633143856582e-02
    x[2,4]    findWorstP[2,1]  8.1701923748864425e-02
    x[2,4]    findWorstP[2,3]  8.1701923748864425e-02
    x[2,4]    findWorstP[3,2]  -9.0712254779494864e-02
    x[2,5]    allocateEach[5]  1
    x[2,5]    findWorstP[1,2]  -1.4680804547442064e-02
    x[2,5]    findWorstP[2,1]  2.2691651109624733e-02
    x[2,5]    findWorstP[2,3]  2.2691651109624733e-02
    x[2,5]    findWorstP[3,2]  -9.3186766122987971e-02
    x[2,6]    allocateEach[6]  1
    x[2,6]    findWorstP[1,2]  -3.1340183646698737e-02
    x[2,6]    findWorstP[2,1]  7.8287693797482252e-02
    x[2,6]    findWorstP[2,3]  7.8287693797482252e-02
    x[2,6]    findWorstP[3,2]  -1.1908585840560572e-02
    x[2,7]    allocateEach[7]  1
    x[2,7]    findWorstP[1,2]  -5.3421512898994321e-02
    x[2,7]    findWorstP[2,1]  8.6374027892861055e-02
    x[2,7]    findWorstP[2,3]  8.6374027892861055e-02
    x[2,7]    findWorstP[3,2]  -3.6844046301914180e-02
    x[2,8]    allocateEach[8]  1
    x[2,8]    findWorstP[1,2]  -6.4440314822912112e-02
    x[2,8]    findWorstP[2,1]  4.6741007696992083e-02
    x[2,8]    findWorstP[2,3]  4.6741007696992083e-02
    x[2,8]    findWorstP[3,2]  -7.1689448826391625e-02
    x[2,9]    allocateEach[9]  1
    x[2,9]    findWorstP[1,2]  -4.3113248797551379e-02
    x[2,9]    findWorstP[2,1]  8.3868262636144914e-02
    x[2,9]    findWorstP[2,3]  8.3868262636144914e-02
    x[2,9]    findWorstP[3,2]  -1.0138358494830889e-01
    x[2,10]   allocateEach[10]  1
    x[2,10]   findWorstP[1,2]  -8.5887625710537818e-02
    x[2,10]   findWorstP[2,1]  3.2495083309207438e-02
    x[2,10]   findWorstP[2,3]  3.2495083309207438e-02
    x[2,10]   findWorstP[3,2]  -1.0316808832102026e-01
    x[2,11]   allocateEach[11]  1
    x[2,11]   findWorstP[1,2]  -1.0154132050721469e-01
    x[2,11]   findWorstP[2,1]  4.3246912717507413e-02
    x[2,11]   findWorstP[2,3]  4.3246912717507413e-02
    x[2,11]   findWorstP[3,2]  -1.4906551506715682e-02
    x[2,12]   allocateEach[12]  1
    x[2,12]   findWorstP[1,2]  -2.1961084390030607e-02
    x[2,12]   findWorstP[2,1]  6.1715700466212095e-02
    x[2,12]   findWorstP[2,3]  6.1715700466212095e-02
    x[2,12]   findWorstP[3,2]  -7.0928060720701430e-02
    x[2,13]   allocateEach[13]  1
    x[2,13]   findWorstP[1,2]  -7.4912549191080022e-02
    x[2,13]   findWorstP[2,1]  3.3633159959668160e-02
    x[2,13]   findWorstP[2,3]  3.3633159959668160e-02
    x[2,13]   findWorstP[3,2]  -2.6244096268008613e-02
    x[2,14]   allocateEach[14]  1
    x[2,14]   findWorstP[1,2]  -3.7888062964582428e-02
    x[2,14]   findWorstP[2,1]  6.5579171200670874e-02
    x[2,14]   findWorstP[2,3]  6.5579171200670874e-02
    x[2,14]   findWorstP[3,2]  -0.0642540181067609
    x[2,15]   allocateEach[15]  1
    x[2,15]   findWorstP[1,2]  -6.1696545693047666e-02
    x[2,15]   findWorstP[2,1]  9.3891323663009507e-02
    x[2,15]   findWorstP[2,3]  9.3891323663009507e-02
    x[2,15]   findWorstP[3,2]  -1.0563070297536196e-01
    x[2,16]   allocateEach[16]  1
    x[2,16]   findWorstP[1,2]  -1.0452557936160911e-01
    x[2,16]   findWorstP[2,1]  3.6029110802743361e-02
    x[2,16]   findWorstP[2,3]  3.6029110802743361e-02
    x[2,16]   findWorstP[3,2]  -3.8450099337354417e-02
    x[3,1]    allocateEach[1]  1
    x[3,1]    findWorstP[1,3]  -0.0784871010056843
    x[3,1]    findWorstP[2,3]  -6.6028411983747468e-02
    x[3,1]    findWorstP[3,1]  7.2117729635842343e-02
    x[3,1]    findWorstP[3,2]  7.2117729635842343e-02
    x[3,2]    allocateEach[2]  1
    x[3,2]    findWorstP[1,3]  -1.0720376038478356e-01
    x[3,2]    findWorstP[2,3]  -6.8364464055745783e-02
    x[3,2]    findWorstP[3,1]  3.9389937780315742e-02
    x[3,2]    findWorstP[3,2]  3.9389937780315742e-02
    x[3,3]    allocateEach[3]  1
    x[3,3]    findWorstP[1,3]  -2.4475295146480103e-02
    x[3,3]    findWorstP[2,3]  -7.4394273677485051e-02
    x[3,3]    findWorstP[3,1]  2.9444305649737681e-02
    x[3,3]    findWorstP[3,2]  2.9444305649737681e-02
    x[3,4]    allocateEach[4]  1
    x[3,4]    findWorstP[1,3]  -6.7096633143856582e-02
    x[3,4]    findWorstP[2,3]  -8.1701923748864425e-02
    x[3,4]    findWorstP[3,1]  9.0712254779494864e-02
    x[3,4]    findWorstP[3,2]  9.0712254779494864e-02
    x[3,5]    allocateEach[5]  1
    x[3,5]    findWorstP[1,3]  -1.4680804547442064e-02
    x[3,5]    findWorstP[2,3]  -2.2691651109624733e-02
    x[3,5]    findWorstP[3,1]  9.3186766122987971e-02
    x[3,5]    findWorstP[3,2]  9.3186766122987971e-02
    x[3,6]    allocateEach[6]  1
    x[3,6]    findWorstP[1,3]  -3.1340183646698737e-02
    x[3,6]    findWorstP[2,3]  -7.8287693797482252e-02
    x[3,6]    findWorstP[3,1]  1.1908585840560572e-02
    x[3,6]    findWorstP[3,2]  1.1908585840560572e-02
    x[3,7]    allocateEach[7]  1
    x[3,7]    findWorstP[1,3]  -5.3421512898994321e-02
    x[3,7]    findWorstP[2,3]  -8.6374027892861055e-02
    x[3,7]    findWorstP[3,1]  3.6844046301914180e-02
    x[3,7]    findWorstP[3,2]  3.6844046301914180e-02
    x[3,8]    allocateEach[8]  1
    x[3,8]    findWorstP[1,3]  -6.4440314822912112e-02
    x[3,8]    findWorstP[2,3]  -4.6741007696992083e-02
    x[3,8]    findWorstP[3,1]  7.1689448826391625e-02
    x[3,8]    findWorstP[3,2]  7.1689448826391625e-02
    x[3,9]    allocateEach[9]  1
    x[3,9]    findWorstP[1,3]  -4.3113248797551379e-02
    x[3,9]    findWorstP[2,3]  -8.3868262636144914e-02
    x[3,9]    findWorstP[3,1]  1.0138358494830889e-01
    x[3,9]    findWorstP[3,2]  1.0138358494830889e-01
    x[3,10]   allocateEach[10]  1
    x[3,10]   findWorstP[1,3]  -8.5887625710537818e-02
    x[3,10]   findWorstP[2,3]  -3.2495083309207438e-02
    x[3,10]   findWorstP[3,1]  1.0316808832102026e-01
    x[3,10]   findWorstP[3,2]  1.0316808832102026e-01
    x[3,11]   allocateEach[11]  1
    x[3,11]   findWorstP[1,3]  -1.0154132050721469e-01
    x[3,11]   findWorstP[2,3]  -4.3246912717507413e-02
    x[3,11]   findWorstP[3,1]  1.4906551506715682e-02
    x[3,11]   findWorstP[3,2]  1.4906551506715682e-02
    x[3,12]   allocateEach[12]  1
    x[3,12]   findWorstP[1,3]  -2.1961084390030607e-02
    x[3,12]   findWorstP[2,3]  -6.1715700466212095e-02
    x[3,12]   findWorstP[3,1]  7.0928060720701430e-02
    x[3,12]   findWorstP[3,2]  7.0928060720701430e-02
    x[3,13]   allocateEach[13]  1
    x[3,13]   findWorstP[1,3]  -7.4912549191080022e-02
    x[3,13]   findWorstP[2,3]  -3.3633159959668160e-02
    x[3,13]   findWorstP[3,1]  2.6244096268008613e-02
    x[3,13]   findWorstP[3,2]  2.6244096268008613e-02
    x[3,14]   allocateEach[14]  1
    x[3,14]   findWorstP[1,3]  -3.7888062964582428e-02
    x[3,14]   findWorstP[2,3]  -6.5579171200670874e-02
    x[3,14]   findWorstP[3,1]  0.0642540181067609
    x[3,14]   findWorstP[3,2]  0.0642540181067609
    x[3,15]   allocateEach[15]  1
    x[3,15]   findWorstP[1,3]  -6.1696545693047666e-02
    x[3,15]   findWorstP[2,3]  -9.3891323663009507e-02
    x[3,15]   findWorstP[3,1]  1.0563070297536196e-01
    x[3,15]   findWorstP[3,2]  1.0563070297536196e-01
    x[3,16]   allocateEach[16]  1
    x[3,16]   findWorstP[1,3]  -1.0452557936160911e-01
    x[3,16]   findWorstP[2,3]  -3.6029110802743361e-02
    x[3,16]   findWorstP[3,1]  3.8450099337354417e-02
    x[3,16]   findWorstP[3,2]  3.8450099337354417e-02
    MARKER    'MARKER'                 'INTEND'
RHS
    RHS1      allocateEach[1]  1
    RHS1      allocateEach[2]  1
    RHS1      allocateEach[3]  1
    RHS1      allocateEach[4]  1
    RHS1      allocateEach[5]  1
    RHS1      allocateEach[6]  1
    RHS1      allocateEach[7]  1
    RHS1      allocateEach[8]  1
    RHS1      allocateEach[9]  1
    RHS1      allocateEach[10]  1
    RHS1      allocateEach[11]  1
    RHS1      allocateEach[12]  1
    RHS1      allocateEach[13]  1
    RHS1      allocateEach[14]  1
    RHS1      allocateEach[15]  1
    RHS1      allocateEach[16]  1
    RHS1      allocateAllCash  1
BOUNDS
 UP BND1      z         1
 MI BND1      cashProportion[1]
 UP BND1      cashProportion[1]  1
 MI BND1      cashProportion[2]
 UP BND1      cashProportion[2]  1
 MI BND1      cashProportion[3]
 UP BND1      cashProportion[3]  1
 BV BND1      x[1,1]  
 BV BND1      x[1,2]  
 BV BND1      x[1,3]  
 BV BND1      x[1,4]  
 BV BND1      x[1,5]  
 BV BND1      x[1,6]  
 BV BND1      x[1,7]  
 BV BND1      x[1,8]  
 BV BND1      x[1,9]  
 BV BND1      x[1,10] 
 BV BND1      x[1,11] 
 BV BND1      x[1,12] 
 BV BND1      x[1,13] 
 BV BND1      x[1,14] 
 BV BND1      x[1,15] 
 BV BND1      x[1,16] 
 BV BND1      x[2,1]  
 BV BND1      x[2,2]  
 BV BND1      x[2,3]  
 BV BND1      x[2,4]  
 BV BND1      x[2,5]  
 BV BND1      x[2,6]  
 BV BND1      x[2,7]  
 BV BND1      x[2,8]  
 BV BND1      x[2,9]  
 BV BND1      x[2,10] 
 BV BND1      x[2,11] 
 BV BND1      x[2,12] 
 BV BND1      x[2,13] 
 BV BND1      x[2,14] 
 BV BND1      x[2,15] 
 BV BND1      x[2,16] 
 BV BND1      x[3,1]  
 BV BND1      x[3,2]  
 BV BND1      x[3,3]  
 BV BND1      x[3,4]  
 BV BND1      x[3,5]  
 BV BND1      x[3,6]  
 BV BND1      x[3,7]  
 BV BND1      x[3,8]  
 BV BND1      x[3,9]  
 BV BND1      x[3,10] 
 BV BND1      x[3,11] 
 BV BND1      x[3,12] 
 BV BND1      x[3,13] 
 BV BND1      x[3,14] 
 BV BND1      x[3,15] 
 BV BND1      x[3,16] 
ENDATA
